SAT
-1 -100 -99 98 -63 87 76 51 -67 -46 93 -31 -88 95 -61 6 -81 -92 33 -84 -79 5 -91 -73 96 -13 -45 94 -26 -35 -54 42 -2 39 -10 -17 -41 -90 97 -11 62 -72 -58 -24 -55 -50 68 69 80 43 -49 -64 -53 -15 19 14 60 83 -37 59 -28 71 23 66 57 3 78 -30 -27 -29 -12 -25 -4 -18 -22 -40 75 -56 -32 -89 -52 8 -47 -85 38 16 77 36 -48 -9 -82 -74 34 20 86 44 21 7 -70 -65 0
